(set-info :smt-lib-version 2.6)
(set-logic UF)
(set-info :source |Benchmarks from the paper: "Extending Sledgehammer with SMT Solvers" by Jasmin Blanchette, Sascha Bohme, and Lawrence C. Paulson, CADE 2011.  Translated to SMT2 by Andrew Reynolds and Morgan Deters.|)
(set-info :category "industrial")
(set-info :status unknown)
(declare-sort S1 0)
(declare-sort S2 0)
(declare-sort S3 0)
(declare-sort S4 0)
(declare-sort S5 0)
(declare-sort S6 0)
(declare-sort S7 0)
(declare-sort S8 0)
(declare-sort S9 0)
(declare-sort S10 0)
(declare-sort S11 0)
(declare-sort S12 0)
(declare-fun f1 () S1)
(declare-fun f2 () S1)
(declare-fun f3 (S2 S3) S3)
(declare-fun f4 (S4 S3) S2)
(declare-fun f5 () S4)
(declare-fun f6 () S2)
(declare-fun f7 () S3)
(declare-fun f8 () S4)
(declare-fun f9 () S4)
(declare-fun f10 () S2)
(declare-fun f11 () S2)
(declare-fun f12 () S3)
(declare-fun f13 () S3)
(declare-fun f14 () S3)
(declare-fun f15 () S3)
(declare-fun f16 (S3) S1)
(declare-fun f17 (S5 S3) S1)
(declare-fun f18 (S6 S3) S5)
(declare-fun f19 (S3) S6)
(declare-fun f20 (S3) S5)
(declare-fun f21 (S7 S8) S8)
(declare-fun f22 (S9 S8) S7)
(declare-fun f23 () S9)
(declare-fun f24 () S8)
(declare-fun f25 (S10 S3) S8)
(declare-fun f26 () S10)
(declare-fun f27 () S9)
(declare-fun f28 () S8)
(declare-fun f29 (S11 S8) S1)
(declare-fun f30 (S8) S11)
(declare-fun f31 () S4)
(declare-fun f32 (S12 S8) S11)
(assert (not (= f1 f2)))
(assert (let ((?v_1 (f3 f6 f7))) (let ((?v_0 (f3 (f4 f5 ?v_1) (f3 (f4 f8 (f3 (f4 f9 (f3 f6 (f3 f10 (f3 f10 (f3 f11 f12))))) f13)) f14)))) (not (or (= ?v_0 f14) (or (= ?v_0 f15) (= ?v_0 ?v_1)))))))
(assert (= (f16 (f3 (f4 f8 (f3 (f4 f9 (f3 f6 (f3 f10 (f3 f10 (f3 f11 f12))))) f13)) f14)) f1))
(assert (let ((?v_0 (f3 (f4 f8 (f3 (f4 f9 (f3 f6 (f3 f10 (f3 f10 (f3 f11 f12))))) f13)) f14))) (= (f17 (f18 (f19 f14) (f3 (f4 f5 (f3 f6 f7)) ?v_0)) ?v_0) f1)))
(assert (let ((?v_0 (f3 f10 (f3 f11 f12)))) (= (f17 (f20 (f3 f6 ?v_0)) (f3 (f4 f8 (f3 (f4 f9 (f3 f6 (f3 f10 ?v_0))) f13)) f14)) f1)))
(assert (forall ((?v0 S3)) (= (f3 (f4 f8 f14) (f3 f6 ?v0)) (f3 f6 (f3 (f4 f8 (f3 f11 f12)) ?v0)))))
(assert (forall ((?v0 S3)) (= (f3 (f4 f8 (f3 f6 ?v0)) f14) (f3 f6 (f3 (f4 f8 ?v0) (f3 f11 f12))))))
(assert (= (f3 (f4 f8 f14) f14) (f3 f6 (f3 f10 (f3 f11 f12)))))
(assert (= (f21 (f22 f23 f24) f24) (f25 f26 (f3 f10 (f3 f11 f12)))))
(assert (= (f3 (f4 f8 f14) f14) (f3 f6 (f3 f10 (f3 f11 f12)))))
(assert (forall ((?v0 S3)) (= (f3 (f4 f9 ?v0) (f3 f6 (f3 f10 (f3 f11 f12)))) (f3 (f4 f8 ?v0) ?v0))))
(assert (forall ((?v0 S8)) (= (f21 (f22 f27 ?v0) (f25 f26 (f3 f10 (f3 f11 f12)))) (f21 (f22 f23 ?v0) ?v0))))
(assert (forall ((?v0 S3)) (= (f3 (f4 f9 ?v0) (f3 f6 (f3 f10 (f3 f11 f12)))) (f3 (f4 f8 ?v0) ?v0))))
(assert (forall ((?v0 S3)) (= (f3 (f4 f9 (f3 f6 (f3 f10 (f3 f11 f12)))) ?v0) (f3 (f4 f8 ?v0) ?v0))))
(assert (forall ((?v0 S8)) (= (f21 (f22 f27 (f25 f26 (f3 f10 (f3 f11 f12)))) ?v0) (f21 (f22 f23 ?v0) ?v0))))
(assert (forall ((?v0 S3)) (= (f3 (f4 f9 (f3 f6 (f3 f10 (f3 f11 f12)))) ?v0) (f3 (f4 f8 ?v0) ?v0))))
(assert (forall ((?v0 S3)) (= (f3 (f4 f9 (f3 (f4 f8 f14) f14)) (f3 f6 ?v0)) (f3 f6 (f3 f10 ?v0)))))
(assert (forall ((?v0 S3) (?v1 S3)) (let ((?v_0 (f3 f6 f7))) (= (= (f3 (f4 f9 ?v0) ?v1) f14) (or (and (= ?v0 f14) (= ?v1 f14)) (and (= ?v0 ?v_0) (= ?v1 ?v_0)))))))
(assert (forall ((?v0 S3) (?v1 S3)) (or (= (f17 (f20 ?v0) ?v1) f1) (or (= ?v0 ?v1) (= (f17 (f20 ?v1) ?v0) f1)))))
(assert (forall ((?v0 S3) (?v1 S3)) (= (= (f17 (f20 (f3 f6 ?v0)) (f3 f6 ?v1)) f1) (= (f17 (f20 ?v0) ?v1) f1))))
(assert (forall ((?v0 S3) (?v1 S3)) (= (= (f17 (f20 (f3 f11 ?v0)) (f3 f11 ?v1)) f1) (= (f17 (f20 ?v0) ?v1) f1))))
(assert (forall ((?v0 S3) (?v1 S3)) (= (= (f17 (f20 (f3 f11 ?v0)) (f3 f11 ?v1)) f1) (= (f17 (f20 ?v0) ?v1) f1))))
(assert (= (= (f17 (f20 f12) f12) f1) false))
(assert (forall ((?v0 S3) (?v1 S3)) (= (= (f17 (f20 (f3 f10 ?v0)) (f3 f10 ?v1)) f1) (= (f17 (f20 ?v0) ?v1) f1))))
(assert (forall ((?v0 S3) (?v1 S3)) (= (= (f17 (f20 (f3 f10 ?v0)) (f3 f10 ?v1)) f1) (= (f17 (f20 ?v0) ?v1) f1))))
(assert (forall ((?v0 S3) (?v1 S3)) (= (= (f17 (f20 (f3 f6 ?v0)) (f3 f6 ?v1)) f1) (= (f17 (f20 ?v0) ?v1) f1))))
(assert (forall ((?v0 S3) (?v1 S3) (?v2 S3)) (=> (= (f17 (f20 ?v0) ?v1) f1) (= (f17 (f20 (f3 (f4 f8 ?v0) ?v2)) (f3 (f4 f8 ?v1) ?v2)) f1))))
(assert (= (= (f17 (f20 f7) f7) f1) false))
(assert (forall ((?v0 S3)) (= (= (f17 (f20 (f3 f6 ?v0)) f15) f1) (= (f17 (f20 ?v0) f12) f1))))
(assert (forall ((?v0 S3)) (= (= (f17 (f20 f15) (f3 f6 ?v0)) f1) (= (f17 (f20 f12) ?v0) f1))))
(assert (forall ((?v0 S3)) (= (= (f17 (f20 (f3 (f4 f8 ?v0) ?v0)) f15) f1) (= (f17 (f20 ?v0) f15) f1))))
(assert (forall ((?v0 S3)) (= (= (f17 (f20 (f3 f11 ?v0)) f12) f1) (= (f17 (f20 ?v0) f12) f1))))
(assert (forall ((?v0 S3)) (= (= (f17 (f20 (f3 f11 ?v0)) f15) f1) (= (f17 (f20 ?v0) f15) f1))))
(assert (forall ((?v0 S3) (?v1 S3)) (= (= (f17 (f20 (f3 f11 ?v0)) (f3 f10 ?v1)) f1) (= (f17 (f20 ?v0) ?v1) f1))))
(assert (forall ((?v0 S3) (?v1 S3)) (= (= (f17 (f20 (f3 f11 ?v0)) (f3 f10 ?v1)) f1) (= (f17 (f20 ?v0) ?v1) f1))))
(assert (= (= (f17 (f20 f12) f15) f1) false))
(assert (forall ((?v0 S3)) (= (= (f17 (f20 (f3 f10 ?v0)) f12) f1) (= (f17 (f20 ?v0) f12) f1))))
(assert (forall ((?v0 S3)) (let ((?v_0 (f20 f12))) (= (= (f17 ?v_0 (f3 f10 ?v0)) f1) (= (f17 ?v_0 ?v0) f1)))))
(assert (forall ((?v0 S3)) (= (= (f17 (f20 (f3 f10 ?v0)) f15) f1) (= (f17 (f20 ?v0) f15) f1))))
(assert (= (f17 (f20 f15) f14) f1))
(assert (forall ((?v0 S3) (?v1 S3) (?v2 S3)) (let ((?v_0 (f4 f9 ?v2))) (=> (= (f17 (f20 ?v0) ?v1) f1) (=> (= (f17 (f20 f15) ?v2) f1) (= (f17 (f20 (f3 ?v_0 ?v0)) (f3 ?v_0 ?v1)) f1))))))
(assert (forall ((?v0 S3) (?v1 S3)) (let ((?v_0 (f20 ?v0))) (= (= (f17 ?v_0 (f3 (f4 f8 ?v1) f14)) f1) (or (= (f17 ?v_0 ?v1) f1) (= ?v0 ?v1))))))
(assert (forall ((?v0 S3)) (= (= (f17 (f20 (f3 f11 ?v0)) f7) f1) (= (f17 (f20 ?v0) f7) f1))))
(assert (forall ((?v0 S3)) (let ((?v_0 (f20 f7))) (= (= (f17 ?v_0 (f3 f11 ?v0)) f1) (= (f17 ?v_0 ?v0) f1)))))
(assert (= (= (f17 (f20 f12) f7) f1) false))
(assert (= (= (f17 (f20 f7) f12) f1) true))
(assert (= (= (f17 (f20 f7) f15) f1) true))
(assert (forall ((?v0 S3)) (let ((?v_0 (f20 f7))) (= (= (f17 ?v_0 (f3 f10 ?v0)) f1) (= (f17 ?v_0 ?v0) f1)))))
(assert (forall ((?v0 S3)) (= (= (f17 (f20 (f3 f6 ?v0)) f14) f1) (= (f17 (f20 ?v0) (f3 f11 f12)) f1))))
(assert (forall ((?v0 S3)) (= (= (f17 (f20 f14) (f3 f6 ?v0)) f1) (= (f17 (f20 (f3 f11 f12)) ?v0) f1))))
(assert (forall ((?v0 S3) (?v1 S3)) (=> (= (f17 (f20 f15) ?v0) f1) (= (= (f3 (f4 f9 ?v0) ?v1) f14) (and (= ?v0 f14) (= ?v1 f14))))))
(assert (forall ((?v0 S3)) (= (= (f17 (f20 (f3 (f4 f8 (f3 (f4 f8 f14) ?v0)) ?v0)) f15) f1) (= (f17 (f20 ?v0) f15) f1))))
(assert (forall ((?v0 S3) (?v1 S3)) (= (= (f3 f6 ?v0) (f3 f6 ?v1)) (= ?v0 ?v1))))
(assert (forall ((?v0 S3) (?v1 S8)) (let ((?v_0 (f25 f26 ?v0))) (= (= ?v_0 ?v1) (= ?v1 ?v_0)))))
(assert (forall ((?v0 S3) (?v1 S3)) (let ((?v_0 (f3 f6 ?v0))) (= (= ?v_0 ?v1) (= ?v1 ?v_0)))))
(assert (forall ((?v0 S3) (?v1 S3)) (= (= (f3 f11 ?v0) (f3 f11 ?v1)) (= ?v0 ?v1))))
(assert (= (= f12 f12) true))
(assert (forall ((?v0 S3) (?v1 S3)) (= (= (f3 f10 ?v0) (f3 f10 ?v1)) (= ?v0 ?v1))))
(assert (forall ((?v0 S3) (?v1 S3) (?v2 S3)) (let ((?v_0 (f4 f9 ?v0))) (= (f3 (f4 f9 (f3 ?v_0 ?v1)) ?v2) (f3 ?v_0 (f3 (f4 f9 ?v1) ?v2))))))
(assert (forall ((?v0 S3) (?v1 S3)) (= (f3 (f4 f9 ?v0) ?v1) (f3 (f4 f9 ?v1) ?v0))))
(assert (forall ((?v0 S3)) (= (f3 f6 ?v0) ?v0)))
(assert (forall ((?v0 S3) (?v1 S3) (?v2 S3)) (let ((?v_0 (f4 f8 ?v0))) (= (f3 (f4 f8 (f3 ?v_0 ?v1)) ?v2) (f3 ?v_0 (f3 (f4 f8 ?v1) ?v2))))))
(assert (forall ((?v0 S3) (?v1 S3) (?v2 S3)) (let ((?v_1 (f4 f8 ?v0)) (?v_0 (f4 f8 ?v1))) (= (f3 ?v_1 (f3 ?v_0 ?v2)) (f3 ?v_0 (f3 ?v_1 ?v2))))))
(assert (forall ((?v0 S3) (?v1 S3)) (= (f3 (f4 f8 ?v0) ?v1) (f3 (f4 f8 ?v1) ?v0))))
(assert (= (= f7 f7) true))
(assert (forall ((?v0 S3)) (= (= (f3 (f4 f8 ?v0) ?v0) f15) (= ?v0 f15))))
(assert (forall ((?v0 S3)) (= (= (f3 f11 ?v0) f12) false)))
(assert (forall ((?v0 S3)) (= (= f12 (f3 f11 ?v0)) false)))
(assert (forall ((?v0 S3) (?v1 S3)) (= (= (f3 f11 ?v0) (f3 f10 ?v1)) false)))
(assert (forall ((?v0 S3) (?v1 S3)) (= (= (f3 f10 ?v0) (f3 f11 ?v1)) false)))
(assert (= f12 f15))
(assert (forall ((?v0 S3)) (= (= (f3 f10 ?v0) f12) (= ?v0 f12))))
(assert (forall ((?v0 S3)) (= (= f12 (f3 f10 ?v0)) (= f12 ?v0))))
(assert (= (f3 f10 f12) f12))
(assert (not (= f15 f14)))
(assert (forall ((?v0 S3)) (= (f3 (f4 f9 f12) ?v0) f12)))
(assert (forall ((?v0 S3) (?v1 S3)) (= (f3 (f4 f9 (f3 f10 ?v0)) ?v1) (f3 f10 (f3 (f4 f9 ?v0) ?v1)))))
(assert (forall ((?v0 S3)) (= (f3 (f4 f8 ?v0) f12) ?v0)))
(assert (forall ((?v0 S3)) (= (f3 (f4 f8 f12) ?v0) ?v0)))
(assert (forall ((?v0 S3)) (= (f3 (f4 f8 ?v0) f15) ?v0)))
(assert (forall ((?v0 S3)) (= (f3 (f4 f8 f15) ?v0) ?v0)))
(assert (forall ((?v0 S3) (?v1 S3)) (= (f3 (f4 f8 (f3 f10 ?v0)) (f3 f10 ?v1)) (f3 f10 (f3 (f4 f8 ?v0) ?v1)))))
(assert (forall ((?v0 S3)) (= (f3 f10 ?v0) (f3 (f4 f8 ?v0) ?v0))))
(assert (forall ((?v0 S3)) (= (f3 (f4 f9 ?v0) f14) ?v0)))
(assert (forall ((?v0 S3)) (= (f3 (f4 f9 f14) ?v0) ?v0)))
(assert (forall ((?v0 S3) (?v1 S3)) (= (f3 (f4 f9 (f3 f6 ?v0)) (f3 f6 ?v1)) (f3 f6 (f3 (f4 f9 ?v0) ?v1)))))
(assert (forall ((?v0 S3)) (= (= (f3 f11 ?v0) f7) (= ?v0 f7))))
(assert (forall ((?v0 S3)) (= (= f7 (f3 f11 ?v0)) (= f7 ?v0))))
(assert (= (f3 f11 f7) f7))
(assert (forall ((?v0 S3) (?v1 S3) (?v2 S3)) (= (f3 (f4 f9 (f3 (f4 f8 ?v0) ?v1)) ?v2) (f3 (f4 f8 (f3 (f4 f9 ?v0) ?v2)) (f3 (f4 f9 ?v1) ?v2)))))
(assert (forall ((?v0 S3) (?v1 S3) (?v2 S3)) (let ((?v_0 (f4 f9 ?v0))) (= (f3 ?v_0 (f3 (f4 f8 ?v1) ?v2)) (f3 (f4 f8 (f3 ?v_0 ?v1)) (f3 ?v_0 ?v2))))))
(assert (= (= f12 f7) false))
(assert (= (= f7 f12) false))
(assert (forall ((?v0 S3)) (= (= (f3 f10 ?v0) f7) false)))
(assert (forall ((?v0 S3)) (= (= f7 (f3 f10 ?v0)) false)))
(assert (forall ((?v0 S3) (?v1 S3)) (= (f3 (f4 f8 (f3 f6 ?v0)) (f3 f6 ?v1)) (f3 f6 (f3 (f4 f8 ?v0) ?v1)))))
(assert (forall ((?v0 S8) (?v1 S8) (?v2 S3)) (let ((?v_0 (f25 f26 ?v2))) (= (f21 (f22 f27 (f21 (f22 f23 ?v0) ?v1)) ?v_0) (f21 (f22 f23 (f21 (f22 f27 ?v0) ?v_0)) (f21 (f22 f27 ?v1) ?v_0))))))
(assert (forall ((?v0 S3) (?v1 S3) (?v2 S3)) (let ((?v_0 (f3 f6 ?v2))) (= (f3 (f4 f9 (f3 (f4 f8 ?v0) ?v1)) ?v_0) (f3 (f4 f8 (f3 (f4 f9 ?v0) ?v_0)) (f3 (f4 f9 ?v1) ?v_0))))))
(assert (forall ((?v0 S3) (?v1 S8) (?v2 S8)) (let ((?v_0 (f22 f27 (f25 f26 ?v0)))) (= (f21 ?v_0 (f21 (f22 f23 ?v1) ?v2)) (f21 (f22 f23 (f21 ?v_0 ?v1)) (f21 ?v_0 ?v2))))))
(assert (forall ((?v0 S3) (?v1 S3) (?v2 S3)) (let ((?v_0 (f4 f9 (f3 f6 ?v0)))) (= (f3 ?v_0 (f3 (f4 f8 ?v1) ?v2)) (f3 (f4 f8 (f3 ?v_0 ?v1)) (f3 ?v_0 ?v2))))))
(assert (= (f25 f26 f12) f28))
(assert (= (f3 f6 f12) f15))
(assert (= (f3 f6 f12) f15))
(assert (forall ((?v0 S3)) (= (f3 (f4 f8 (f3 f6 f12)) ?v0) ?v0)))
(assert (forall ((?v0 S3)) (= (f3 (f4 f8 ?v0) (f3 f6 f12)) ?v0)))
(assert (forall ((?v0 S3) (?v1 S3)) (= (f3 f6 (f3 (f4 f9 ?v0) ?v1)) (f3 (f4 f9 (f3 f6 ?v0)) (f3 f6 ?v1)))))
(assert (forall ((?v0 S3) (?v1 S3) (?v2 S3)) (= (f3 (f4 f9 (f3 f6 ?v0)) (f3 (f4 f9 (f3 f6 ?v1)) ?v2)) (f3 (f4 f9 (f3 f6 (f3 (f4 f9 ?v0) ?v1))) ?v2))))
(assert (forall ((?v0 S3) (?v1 S3)) (= (f3 (f4 f9 (f3 f6 ?v0)) (f3 f6 ?v1)) (f3 f6 (f3 (f4 f9 ?v0) ?v1)))))
(assert (forall ((?v0 S3) (?v1 S3) (?v2 S3)) (= (f3 (f4 f8 (f3 f6 ?v0)) (f3 (f4 f8 (f3 f6 ?v1)) ?v2)) (f3 (f4 f8 (f3 f6 (f3 (f4 f8 ?v0) ?v1))) ?v2))))
(assert (forall ((?v0 S3) (?v1 S3)) (= (f3 (f4 f8 (f3 f6 ?v0)) (f3 f6 ?v1)) (f3 f6 (f3 (f4 f8 ?v0) ?v1)))))
(assert (forall ((?v0 S3) (?v1 S3)) (= (f3 f6 (f3 (f4 f8 ?v0) ?v1)) (f3 (f4 f8 (f3 f6 ?v0)) (f3 f6 ?v1)))))
(assert (= f15 (f3 f6 f12)))
(assert (forall ((?v0 S3) (?v1 S3)) (= (f3 (f4 f8 (f3 f11 ?v0)) (f3 f10 ?v1)) (f3 f11 (f3 (f4 f8 ?v0) ?v1)))))
(assert (forall ((?v0 S3) (?v1 S3)) (= (f3 (f4 f8 (f3 f10 ?v0)) (f3 f11 ?v1)) (f3 f11 (f3 (f4 f8 ?v0) ?v1)))))
(assert (forall ((?v0 S3)) (= (f3 f11 ?v0) (f3 (f4 f8 (f3 (f4 f8 f14) ?v0)) ?v0))))
(assert (forall ((?v0 S3)) (not (= (f3 (f4 f8 (f3 (f4 f8 f14) ?v0)) ?v0) f15))))
(assert (forall ((?v0 S3)) (let ((?v_0 (f3 f6 ?v0))) (= (f3 f6 (f3 f10 ?v0)) (f3 (f4 f8 (f3 (f4 f8 f15) ?v_0)) ?v_0)))))
(assert (forall ((?v0 S3)) (let ((?v_0 (f3 f6 ?v0))) (= (f3 f6 (f3 f11 ?v0)) (f3 (f4 f8 (f3 (f4 f8 f14) ?v_0)) ?v_0)))))
(assert (forall ((?v0 S3)) (= (f3 (f4 f9 (f3 f6 (f3 f11 f12))) ?v0) ?v0)))
(assert (forall ((?v0 S3)) (= (f3 (f4 f9 ?v0) (f3 f6 (f3 f11 f12))) ?v0)))
(assert (= (f25 f26 (f3 f11 f12)) f24))
(assert (= (f3 f6 (f3 f11 f12)) f14))
(assert (= (f3 f6 (f3 f11 f12)) f14))
(assert (= f14 (f3 f6 (f3 f11 f12))))
(assert (forall ((?v0 S3) (?v1 S3)) (= (f3 (f4 f9 (f3 f11 ?v0)) ?v1) (f3 (f4 f8 (f3 f10 (f3 (f4 f9 ?v0) ?v1))) ?v1))))
(assert (forall ((?v0 S3) (?v1 S3)) (=> (= (f3 (f4 f9 ?v0) ?v1) f14) (or (= ?v0 f14) (= ?v0 (f3 f6 f7))))))
(assert (forall ((?v0 S3) (?v1 S3)) (let ((?v_0 (f19 ?v1))) (=> (= (f17 (f20 (f3 f6 (f3 f10 (f3 f11 f12)))) ?v0) f1) (=> (= (f17 (f18 ?v_0 (f3 f6 f7)) ?v0) f1) (not (= (f17 (f18 ?v_0 f14) ?v0) f1)))))))
(assert (forall ((?v0 S3)) (=> (= (f17 (f20 (f3 f6 (f3 f10 (f3 f11 f12)))) ?v0) f1) (not (= (f17 (f18 (f19 f14) (f3 f6 f7)) ?v0) f1)))))
(assert (forall ((?v0 S3) (?v1 S3) (?v2 S3)) (=> (= (f16 ?v0) f1) (=> (= (f17 (f20 f15) ?v1) f1) (=> (= (f17 (f18 (f19 (f3 (f4 f9 ?v1) ?v2)) f15) ?v0) f1) (or (= (f17 (f18 (f19 ?v1) f15) ?v0) f1) (= (f17 (f18 (f19 ?v2) f15) ?v0) f1)))))))
(assert (forall ((?v0 S3) (?v1 S3) (?v2 S3)) (=> (= (f16 ?v0) f1) (=> (= (f17 (f20 f15) ?v1) f1) (=> (and (not (= (f17 (f18 (f19 ?v1) f15) ?v0) f1)) (not (= (f17 (f18 (f19 ?v2) f15) ?v0) f1))) (not (= (f17 (f18 (f19 (f3 (f4 f9 ?v1) ?v2)) f15) ?v0) f1)))))))
(assert (= (f16 (f3 f6 (f3 f10 (f3 f11 f12)))) f1))
(assert (forall ((?v0 S3) (?v1 S3) (?v2 S3)) (=> (= (f16 ?v0) f1) (=> (not (= (f17 (f18 (f19 ?v1) f15) ?v0) f1)) (=> (not (= (f17 (f18 (f19 ?v2) f15) ?v0) f1)) (not (= (f17 (f18 (f19 (f3 (f4 f9 ?v1) ?v2)) f15) ?v0) f1)))))))
(assert (= f14 (f3 f6 (f3 f11 f12))))
(assert (= (f29 (f30 f28) (f21 (f22 f23 f24) f24)) f1))
(assert (= (f17 (f20 f15) (f3 (f4 f8 f14) f14)) f1))
(assert (forall ((?v0 S3) (?v1 S3)) (= (= (f17 (f20 f15) (f3 (f4 f8 (f3 (f4 f9 ?v0) ?v0)) (f3 (f4 f9 ?v1) ?v1))) f1) (or (not (= ?v0 f15)) (not (= ?v1 f15))))))
(assert (forall ((?v0 S3) (?v1 S3)) (not (= (f17 (f20 (f3 (f4 f8 (f3 (f4 f9 ?v0) ?v0)) (f3 (f4 f9 ?v1) ?v1))) f15) f1))))
(assert (forall ((?v0 S3) (?v1 S3) (?v2 S5)) (=> (= (f17 (f20 ?v0) ?v1) f1) (=> (= (f17 ?v2 (f3 (f4 f8 ?v0) f14)) f1) (=> (forall ((?v3 S3)) (=> (= (f17 (f20 ?v0) ?v3) f1) (=> (= (f17 ?v2 ?v3) f1) (= (f17 ?v2 (f3 (f4 f8 ?v3) f14)) f1)))) (= (f17 ?v2 ?v1) f1))))))
(assert (= (f25 f26 f12) f28))
(assert (= f28 (f25 f26 f12)))
(assert (forall ((?v0 S3)) (= (= (f29 (f30 f28) (f25 f26 ?v0)) f1) (= (f17 (f20 f12) ?v0) f1))))
(assert (forall ((?v0 S3) (?v1 S3)) (= (= (f29 (f30 (f25 f26 ?v0)) (f25 f26 ?v1)) f1) (ite (= (f17 (f20 ?v0) ?v1) f1) (= (f17 (f20 f12) ?v1) f1) false))))
(assert (forall ((?v0 S3) (?v1 S3) (?v2 S8)) (= (f21 (f22 f27 (f25 f26 ?v0)) (f21 (f22 f27 (f25 f26 ?v1)) ?v2)) (ite (= (f17 (f20 ?v0) f12) f1) f28 (f21 (f22 f27 (f25 f26 (f3 (f4 f9 ?v0) ?v1))) ?v2)))))
(assert (forall ((?v0 S3) (?v1 S3)) (= (f21 (f22 f27 (f25 f26 ?v0)) (f25 f26 ?v1)) (ite (= (f17 (f20 ?v0) f12) f1) f28 (f25 f26 (f3 (f4 f9 ?v0) ?v1))))))
(assert (forall ((?v0 S3) (?v1 S3)) (=> (not (= ?v0 ?v1)) (=> (=> (= (f17 (f20 ?v0) ?v1) f1) false) (=> (=> (= (f17 (f20 ?v1) ?v0) f1) false) false)))))
(assert (forall ((?v0 S3) (?v1 S3) (?v2 S3) (?v3 S3) (?v4 S3)) (let ((?v_0 (f19 ?v0))) (=> (= (f17 (f18 ?v_0 ?v1) ?v2) f1) (=> (= ?v1 ?v3) (=> (= (f17 (f18 (f19 ?v3) ?v4) ?v2) f1) (= (f17 (f18 ?v_0 ?v4) ?v2) f1)))))))
(assert (forall ((?v0 S8)) (= (f21 (f22 f27 f28) ?v0) f28)))
(assert (forall ((?v0 S3)) (= (f3 (f4 f9 f15) ?v0) f15)))
(assert (forall ((?v0 S8)) (= (f21 (f22 f27 ?v0) f28) f28)))
(assert (forall ((?v0 S3)) (= (f3 (f4 f9 ?v0) f15) f15)))
(assert (forall ((?v0 S3) (?v1 S3)) (= (= (f3 (f4 f9 ?v0) ?v1) f15) (or (= ?v0 f15) (= ?v1 f15)))))
(assert (forall ((?v0 S8) (?v1 S8)) (=> (not (= ?v0 f28)) (=> (not (= ?v1 f28)) (not (= (f21 (f22 f27 ?v0) ?v1) f28))))))
(assert (forall ((?v0 S3) (?v1 S3)) (=> (not (= ?v0 f15)) (=> (not (= ?v1 f15)) (not (= (f3 (f4 f9 ?v0) ?v1) f15))))))
(assert (forall ((?v0 S8) (?v1 S8)) (=> (= (f21 (f22 f27 ?v0) ?v1) f28) (or (= ?v0 f28) (= ?v1 f28)))))
(assert (forall ((?v0 S3) (?v1 S3)) (=> (= (f3 (f4 f9 ?v0) ?v1) f15) (or (= ?v0 f15) (= ?v1 f15)))))
(assert (not (= f24 f28)))
(assert (not (= f14 f15)))
(assert (not (= f28 f24)))
(assert (not (= f15 f14)))
(assert (forall ((?v0 S8) (?v1 S8) (?v2 S8)) (= (f21 (f22 f27 (f21 (f22 f23 ?v0) ?v1)) ?v2) (f21 (f22 f23 (f21 (f22 f27 ?v0) ?v2)) (f21 (f22 f27 ?v1) ?v2)))))
(assert (forall ((?v0 S3) (?v1 S3) (?v2 S3)) (= (f3 (f4 f9 (f3 (f4 f8 ?v0) ?v1)) ?v2) (f3 (f4 f8 (f3 (f4 f9 ?v0) ?v2)) (f3 (f4 f9 ?v1) ?v2)))))
(assert (forall ((?v0 S8) (?v1 S8) (?v2 S8) (?v3 S8)) (= (f21 (f22 f23 (f21 (f22 f27 ?v0) ?v1)) (f21 (f22 f23 (f21 (f22 f27 ?v2) ?v1)) ?v3)) (f21 (f22 f23 (f21 (f22 f27 (f21 (f22 f23 ?v0) ?v2)) ?v1)) ?v3))))
(assert (forall ((?v0 S3) (?v1 S3) (?v2 S3) (?v3 S3)) (= (f3 (f4 f8 (f3 (f4 f9 ?v0) ?v1)) (f3 (f4 f8 (f3 (f4 f9 ?v2) ?v1)) ?v3)) (f3 (f4 f8 (f3 (f4 f9 (f3 (f4 f8 ?v0) ?v2)) ?v1)) ?v3))))
(assert (= f24 (f25 f26 (f3 f11 f12))))
(assert (= (f25 f26 (f3 f11 f12)) f24))
(assert (forall ((?v0 S3)) (= (f17 (f18 (f19 ?v0) f15) ?v0) f1)))
(assert (forall ((?v0 S3) (?v1 S3) (?v2 S3) (?v3 S3) (?v4 S3)) (let ((?v_0 (f19 ?v3))) (=> (= (f17 (f18 (f19 ?v0) ?v1) ?v2) f1) (= (= (f17 (f18 ?v_0 (f3 (f4 f9 ?v0) ?v4)) ?v2) f1) (= (f17 (f18 ?v_0 (f3 (f4 f9 ?v1) ?v4)) ?v2) f1))))))
(assert (forall ((?v0 S3) (?v1 S3) (?v2 S3) (?v3 S3) (?v4 S3)) (let ((?v_0 (f19 ?v3)) (?v_1 (f4 f9 ?v4))) (=> (= (f17 (f18 (f19 ?v0) ?v1) ?v2) f1) (= (= (f17 (f18 ?v_0 (f3 ?v_1 ?v0)) ?v2) f1) (= (f17 (f18 ?v_0 (f3 ?v_1 ?v1)) ?v2) f1))))))
(assert (forall ((?v0 S3) (?v1 S3) (?v2 S3) (?v3 S3)) (=> (= (f17 (f18 (f19 ?v0) ?v1) ?v2) f1) (= (f17 (f18 (f19 (f3 (f4 f8 ?v0) ?v3)) (f3 (f4 f8 ?v1) ?v3)) ?v2) f1))))
(assert (forall ((?v0 S3)) (not (= (f17 (f20 (f3 (f4 f9 ?v0) ?v0)) f15) f1))))
(assert (forall ((?v0 S3) (?v1 S3) (?v2 S3)) (= (= (f17 (f20 (f3 (f4 f9 ?v0) ?v1)) (f3 (f4 f9 ?v2) ?v1)) f1) (or (and (= (f17 (f20 f15) ?v1) f1) (= (f17 (f20 ?v0) ?v2) f1)) (and (= (f17 (f20 ?v1) f15) f1) (= (f17 (f20 ?v2) ?v0) f1))))))
(assert (forall ((?v0 S3) (?v1 S3) (?v2 S3)) (let ((?v_0 (f4 f9 ?v0))) (= (= (f17 (f20 (f3 ?v_0 ?v1)) (f3 ?v_0 ?v2)) f1) (or (and (= (f17 (f20 f15) ?v0) f1) (= (f17 (f20 ?v1) ?v2) f1)) (and (= (f17 (f20 ?v0) f15) f1) (= (f17 (f20 ?v2) ?v1) f1)))))))
(assert (forall ((?v0 S3) (?v1 S3) (?v2 S3)) (let ((?v_0 (f4 f9 ?v0))) (=> (= (f17 (f20 f15) ?v0) f1) (= (= (f17 (f20 (f3 ?v_0 ?v1)) (f3 ?v_0 ?v2)) f1) (= (f17 (f20 ?v1) ?v2) f1))))))
(assert (forall ((?v0 S8) (?v1 S8)) (let ((?v_0 (f30 f28))) (=> (= (f29 ?v_0 ?v0) f1) (=> (= (f29 ?v_0 ?v1) f1) (= (f29 ?v_0 (f21 (f22 f27 ?v0) ?v1)) f1))))))
(assert (forall ((?v0 S3) (?v1 S3)) (let ((?v_0 (f20 f15))) (=> (= (f17 ?v_0 ?v0) f1) (=> (= (f17 ?v_0 ?v1) f1) (= (f17 ?v_0 (f3 (f4 f9 ?v0) ?v1)) f1))))))
(assert (forall ((?v0 S8) (?v1 S8)) (=> (= (f29 (f30 f28) ?v0) f1) (=> (= (f29 (f30 ?v1) f28) f1) (= (f29 (f30 (f21 (f22 f27 ?v0) ?v1)) f28) f1)))))
(assert (forall ((?v0 S3) (?v1 S3)) (=> (= (f17 (f20 f15) ?v0) f1) (=> (= (f17 (f20 ?v1) f15) f1) (= (f17 (f20 (f3 (f4 f9 ?v0) ?v1)) f15) f1)))))
(assert (forall ((?v0 S8) (?v1 S8)) (=> (= (f29 (f30 f28) ?v0) f1) (=> (= (f29 (f30 ?v1) f28) f1) (= (f29 (f30 (f21 (f22 f27 ?v1) ?v0)) f28) f1)))))
(assert (forall ((?v0 S3) (?v1 S3)) (=> (= (f17 (f20 f15) ?v0) f1) (=> (= (f17 (f20 ?v1) f15) f1) (= (f17 (f20 (f3 (f4 f9 ?v1) ?v0)) f15) f1)))))
(assert (forall ((?v0 S8) (?v1 S8)) (let ((?v_0 (f30 f28))) (=> (= (f29 ?v_0 (f21 (f22 f27 ?v0) ?v1)) f1) (=> (= (f29 ?v_0 ?v0) f1) (= (f29 ?v_0 ?v1) f1))))))
(assert (forall ((?v0 S3) (?v1 S3)) (let ((?v_0 (f20 f15))) (=> (= (f17 ?v_0 (f3 (f4 f9 ?v0) ?v1)) f1) (=> (= (f17 ?v_0 ?v0) f1) (= (f17 ?v_0 ?v1) f1))))))
(assert (forall ((?v0 S8) (?v1 S8)) (let ((?v_0 (f30 f28))) (=> (= (f29 ?v_0 (f21 (f22 f27 ?v0) ?v1)) f1) (=> (= (f29 ?v_0 ?v1) f1) (= (f29 ?v_0 ?v0) f1))))))
(assert (forall ((?v0 S3) (?v1 S3)) (let ((?v_0 (f20 f15))) (=> (= (f17 ?v_0 (f3 (f4 f9 ?v0) ?v1)) f1) (=> (= (f17 ?v_0 ?v1) f1) (= (f17 ?v_0 ?v0) f1))))))
(assert (forall ((?v0 S3) (?v1 S3) (?v2 S3)) (let ((?v_0 (f4 f9 ?v0))) (=> (= (f17 (f20 ?v0) f15) f1) (= (= (f17 (f20 (f3 ?v_0 ?v1)) (f3 ?v_0 ?v2)) f1) (= (f17 (f20 ?v2) ?v1) f1))))))
(assert (forall ((?v0 S8) (?v1 S8)) (=> (= (f29 (f30 ?v0) f28) f1) (=> (= (f29 (f30 f28) ?v1) f1) (= (f29 (f30 (f21 (f22 f27 ?v0) ?v1)) f28) f1)))))
(assert (forall ((?v0 S3) (?v1 S3)) (=> (= (f17 (f20 ?v0) f15) f1) (=> (= (f17 (f20 f15) ?v1) f1) (= (f17 (f20 (f3 (f4 f9 ?v0) ?v1)) f15) f1)))))
(assert (forall ((?v0 S3) (?v1 S3)) (=> (= (f17 (f20 ?v0) f15) f1) (=> (= (f17 (f20 ?v1) f15) f1) (= (f17 (f20 f15) (f3 (f4 f9 ?v0) ?v1)) f1)))))
(assert (forall ((?v0 S8) (?v1 S8) (?v2 S8)) (=> (= (f29 (f30 ?v0) ?v1) f1) (=> (= (f29 (f30 f28) ?v2) f1) (= (f29 (f30 (f21 (f22 f27 ?v0) ?v2)) (f21 (f22 f27 ?v1) ?v2)) f1)))))
(assert (forall ((?v0 S3) (?v1 S3) (?v2 S3)) (=> (= (f17 (f20 ?v0) ?v1) f1) (=> (= (f17 (f20 f15) ?v2) f1) (= (f17 (f20 (f3 (f4 f9 ?v0) ?v2)) (f3 (f4 f9 ?v1) ?v2)) f1)))))
(assert (forall ((?v0 S8) (?v1 S8) (?v2 S8)) (let ((?v_0 (f22 f27 ?v2))) (=> (= (f29 (f30 ?v0) ?v1) f1) (=> (= (f29 (f30 f28) ?v2) f1) (= (f29 (f30 (f21 ?v_0 ?v0)) (f21 ?v_0 ?v1)) f1))))))
(assert (forall ((?v0 S3) (?v1 S3) (?v2 S3)) (let ((?v_0 (f4 f9 ?v2))) (=> (= (f17 (f20 ?v0) ?v1) f1) (=> (= (f17 (f20 f15) ?v2) f1) (= (f17 (f20 (f3 ?v_0 ?v0)) (f3 ?v_0 ?v1)) f1))))))
(assert (forall ((?v0 S8) (?v1 S8) (?v2 S8)) (let ((?v_0 (f22 f27 ?v2))) (=> (= (f29 (f30 ?v0) ?v1) f1) (=> (= (f29 (f30 f28) ?v2) f1) (= (f29 (f30 (f21 ?v_0 ?v0)) (f21 ?v_0 ?v1)) f1))))))
(assert (forall ((?v0 S3) (?v1 S3) (?v2 S3)) (let ((?v_0 (f4 f9 ?v2))) (=> (= (f17 (f20 ?v0) ?v1) f1) (=> (= (f17 (f20 f15) ?v2) f1) (= (f17 (f20 (f3 ?v_0 ?v0)) (f3 ?v_0 ?v1)) f1))))))
(assert (forall ((?v0 S3) (?v1 S3) (?v2 S3)) (=> (= (f17 (f20 ?v0) ?v1) f1) (=> (= (f17 (f20 ?v2) f15) f1) (= (f17 (f20 (f3 (f4 f9 ?v1) ?v2)) (f3 (f4 f9 ?v0) ?v2)) f1)))))
(assert (forall ((?v0 S3) (?v1 S3) (?v2 S3)) (let ((?v_0 (f4 f9 ?v2))) (=> (= (f17 (f20 ?v0) ?v1) f1) (=> (= (f17 (f20 ?v2) f15) f1) (= (f17 (f20 (f3 ?v_0 ?v1)) (f3 ?v_0 ?v0)) f1))))))
(assert (forall ((?v0 S8) (?v1 S8) (?v2 S8)) (let ((?v_0 (f30 ?v1))) (=> (= (f29 (f30 f28) ?v0) f1) (=> (= (f29 ?v_0 ?v2) f1) (= (f29 ?v_0 (f21 (f22 f23 ?v0) ?v2)) f1))))))
(assert (forall ((?v0 S3) (?v1 S3) (?v2 S3)) (let ((?v_0 (f20 ?v1))) (=> (= (f17 (f20 f15) ?v0) f1) (=> (= (f17 ?v_0 ?v2) f1) (= (f17 ?v_0 (f3 (f4 f8 ?v0) ?v2)) f1))))))
(assert (not (= (f29 (f30 f24) f28) f1)))
(assert (not (= (f17 (f20 f14) f15) f1)))
(assert (= (f29 (f30 f28) f24) f1))
(assert (= (f17 (f20 f15) f14) f1))
(assert (forall ((?v0 S3) (?v1 S3)) (= (= (f3 (f4 f8 (f3 (f4 f9 ?v0) ?v0)) (f3 (f4 f9 ?v1) ?v1)) f15) (and (= ?v0 f15) (= ?v1 f15)))))
(assert (forall ((?v0 S8) (?v1 S8)) (let ((?v_0 (f30 f24))) (=> (= (f29 ?v_0 ?v0) f1) (=> (= (f29 ?v_0 ?v1) f1) (= (f29 ?v_0 (f21 (f22 f27 ?v0) ?v1)) f1))))))
(assert (forall ((?v0 S3) (?v1 S3)) (let ((?v_0 (f20 f14))) (=> (= (f17 ?v_0 ?v0) f1) (=> (= (f17 ?v_0 ?v1) f1) (= (f17 ?v_0 (f3 (f4 f9 ?v0) ?v1)) f1))))))
(assert (forall ((?v0 S8)) (= (f29 (f30 ?v0) (f21 (f22 f23 ?v0) f24)) f1)))
(assert (forall ((?v0 S3)) (= (f17 (f20 ?v0) (f3 (f4 f8 ?v0) f14)) f1)))
(assert (= f15 (f3 f6 f12)))
(assert (= (f21 (f22 f23 f24) f24) (f25 f26 (f3 f10 (f3 f11 f12)))))
(assert (forall ((?v0 S8)) (= (f21 (f22 f27 ?v0) (f25 f26 (f3 f10 (f3 f11 f12)))) (f21 (f22 f23 ?v0) ?v0))))
(assert (forall ((?v0 S8)) (= (f21 (f22 f27 (f25 f26 (f3 f10 (f3 f11 f12)))) ?v0) (f21 (f22 f23 ?v0) ?v0))))
(assert (forall ((?v0 S3) (?v1 S3)) (let ((?v_0 (f20 f15))) (=> (= (f17 ?v_0 ?v0) f1) (=> (= (f17 ?v_0 (f3 (f4 f9 ?v0) ?v1)) f1) (= (f17 ?v_0 ?v1) f1))))))
(assert (forall ((?v0 S3) (?v1 S3)) (let ((?v_1 (f25 f26 ?v0)) (?v_0 (f25 f26 ?v1))) (= (f21 (f22 f23 ?v_1) ?v_0) (ite (= (f17 (f20 ?v0) f12) f1) ?v_0 (ite (= (f17 (f20 ?v1) f12) f1) ?v_1 (f25 f26 (f3 (f4 f8 ?v0) ?v1))))))))
(assert (forall ((?v0 S3) (?v1 S3)) (=> (= (f17 (f20 f15) ?v0) f1) (=> (= (f17 (f20 ?v0) ?v1) f1) (not (= (f17 (f18 (f19 ?v0) f15) ?v1) f1))))))
(assert (forall ((?v0 S3) (?v1 S3) (?v2 S3)) (let ((?v_0 (f20 f15))) (=> (= (f17 ?v_0 ?v0) f1) (=> (= (f17 ?v_0 ?v1) f1) (=> (= (f17 ?v_0 ?v2) f1) (=> (= (f17 (f18 (f19 ?v0) ?v1) ?v2) f1) (=> (= (f17 (f20 ?v0) ?v2) f1) (=> (= (f17 (f20 ?v1) ?v2) f1) (= ?v0 ?v1))))))))))
(assert (not (= (f3 f6 f12) (f3 f6 f7))))
(assert (forall ((?v0 S3) (?v1 S3)) (=> (= (f17 (f20 (f3 f6 (f3 f10 (f3 f11 f12)))) ?v0) f1) (=> (= (f16 ?v0) f1) (=> (not (= (f17 (f18 (f19 ?v1) f15) ?v0) f1)) (= (f17 (f18 (f19 (f3 (f4 f9 ?v1) (f3 (f4 f31 ?v0) ?v1))) f14) ?v0) f1))))))
(assert (forall ((?v0 S3) (?v1 S3)) (=> (= (f17 (f20 (f3 f6 (f3 f10 (f3 f11 f12)))) ?v0) f1) (=> (= (f16 ?v0) f1) (=> (not (= (f17 (f18 (f19 ?v1) f15) ?v0) f1)) (= (f17 (f18 (f19 (f3 (f4 f9 (f3 (f4 f31 ?v0) ?v1)) ?v1)) f14) ?v0) f1))))))
(assert (forall ((?v0 S3) (?v1 S3) (?v2 S3)) (= (= (f17 (f18 (f19 ?v0) ?v1) ?v2) f1) (exists ((?v3 S3)) (= ?v1 (f3 (f4 f8 ?v0) (f3 (f4 f9 ?v2) ?v3)))))))
(assert (forall ((?v0 S3) (?v1 S3) (?v2 S3)) (let ((?v_0 (f20 f15))) (=> (= (f17 ?v_0 ?v0) f1) (=> (= (f17 (f20 ?v0) ?v1) f1) (=> (= (f17 ?v_0 ?v2) f1) (=> (= (f17 (f20 ?v2) ?v0) f1) (not (= (f17 (f18 (f19 ?v0) ?v2) ?v1) f1)))))))))
(assert (forall ((?v0 S3) (?v1 S3) (?v2 S3) (?v3 S3)) (let ((?v_0 (f3 (f4 f9 ?v1) (f3 (f4 f31 ?v2) ?v3)))) (=> (= (f17 (f18 (f19 ?v0) ?v_0) ?v2) f1) (= (f17 (f18 (f19 (f3 (f4 f9 ?v0) ?v3)) (f3 (f4 f9 ?v_0) ?v3)) ?v2) f1)))))
(assert (forall ((?v0 S3) (?v1 S3) (?v2 S3) (?v3 S3)) (let ((?v_0 (f4 f9 (f3 (f4 f31 ?v3) ?v0)))) (=> (= (f17 (f18 (f19 (f3 (f4 f9 ?v0) ?v1)) ?v2) ?v3) f1) (= (f17 (f18 (f19 (f3 (f4 f9 (f3 ?v_0 ?v0)) ?v1)) (f3 ?v_0 ?v2)) ?v3) f1)))))
(assert (forall ((?v0 S3) (?v1 S3) (?v2 S3)) (= (= (f17 (f18 (f19 ?v0) ?v1) ?v2) f1) (= (f17 (f18 (f19 ?v1) ?v0) ?v2) f1))))
(assert (forall ((?v0 S3) (?v1 S3)) (= (f17 (f18 (f19 ?v0) ?v0) ?v1) f1)))
(assert (forall ((?v0 S3) (?v1 S3) (?v2 S3) (?v3 S3)) (let ((?v_0 (f19 ?v0))) (=> (= (f17 (f18 ?v_0 ?v1) ?v2) f1) (=> (= (f17 (f18 (f19 ?v1) ?v3) ?v2) f1) (= (f17 (f18 ?v_0 ?v3) ?v2) f1))))))
(assert (forall ((?v0 S3) (?v1 S3)) (= (= (f17 (f18 (f19 ?v0) ?v1) f15) f1) (= ?v0 ?v1))))
(assert (forall ((?v0 S3) (?v1 S3) (?v2 S3)) (let ((?v_0 (f4 f31 ?v0))) (=> (= (f17 (f20 (f3 f6 (f3 f10 (f3 f11 f12)))) ?v0) f1) (=> (= (f17 (f18 (f19 ?v1) ?v2) ?v0) f1) (= (f17 (f18 (f19 (f3 ?v_0 ?v1)) (f3 ?v_0 ?v2)) ?v0) f1))))))
(assert (forall ((?v0 S3) (?v1 S3)) (= (f17 (f18 (f19 ?v0) ?v1) f14) f1)))
(assert (forall ((?v0 S3) (?v1 S3) (?v2 S3) (?v3 S3) (?v4 S3)) (=> (= (f17 (f18 (f19 ?v0) ?v1) ?v2) f1) (=> (= (f17 (f18 (f19 ?v3) ?v4) ?v2) f1) (= (f17 (f18 (f19 (f3 (f4 f9 ?v0) ?v3)) (f3 (f4 f9 ?v1) ?v4)) ?v2) f1)))))
(assert (forall ((?v0 S3) (?v1 S3) (?v2 S3) (?v3 S3)) (let ((?v_0 (f4 f9 ?v3))) (=> (= (f17 (f18 (f19 ?v0) ?v1) ?v2) f1) (= (f17 (f18 (f19 (f3 ?v_0 ?v0)) (f3 ?v_0 ?v1)) ?v2) f1)))))
(assert (forall ((?v0 S3) (?v1 S3) (?v2 S3) (?v3 S3)) (=> (= (f17 (f18 (f19 ?v0) ?v1) ?v2) f1) (= (f17 (f18 (f19 (f3 (f4 f9 ?v0) ?v3)) (f3 (f4 f9 ?v1) ?v3)) ?v2) f1))))
(assert (forall ((?v0 S3) (?v1 S3) (?v2 S3)) (= (f17 (f18 (f19 (f3 (f4 f9 ?v0) ?v1)) (f3 (f4 f9 ?v2) ?v1)) ?v1) f1)))
(assert (forall ((?v0 S3) (?v1 S3) (?v2 S3) (?v3 S3) (?v4 S3)) (=> (= (f17 (f18 (f19 ?v0) ?v1) ?v2) f1) (=> (= (f17 (f18 (f19 ?v3) ?v4) ?v2) f1) (= (f17 (f18 (f19 (f3 (f4 f8 ?v0) ?v3)) (f3 (f4 f8 ?v1) ?v4)) ?v2) f1)))))
(assert (forall ((?v0 S3) (?v1 S3) (?v2 S3) (?v3 S3)) (let ((?v_0 (f4 f9 ?v3)) (?v_1 (f4 f31 ?v0))) (=> (= (f17 (f20 (f3 f6 (f3 f10 (f3 f11 f12)))) ?v0) f1) (=> (= (f17 (f18 (f19 ?v1) ?v2) ?v0) f1) (= (f17 (f18 (f19 (f3 ?v_0 (f3 ?v_1 ?v1))) (f3 ?v_0 (f3 ?v_1 ?v2))) ?v0) f1))))))
(assert (forall ((?v0 S3) (?v1 S3) (?v2 S3)) (let ((?v_1 (f19 ?v1)) (?v_0 (f4 f31 ?v0))) (=> (= (f17 (f20 (f3 f6 (f3 f10 (f3 f11 f12)))) ?v0) f1) (=> (= (f16 ?v0) f1) (=> (not (= (f17 (f18 ?v_1 f15) ?v0) f1)) (=> (not (= (f17 (f18 (f19 ?v2) f15) ?v0) f1)) (=> (= (f17 (f18 (f19 (f3 ?v_0 ?v1)) (f3 ?v_0 ?v2)) ?v0) f1) (= (f17 (f18 ?v_1 ?v2) ?v0) f1)))))))))
(assert (forall ((?v0 S3) (?v1 S3)) (let ((?v_0 (f4 f31 ?v0))) (=> (= (f17 (f20 (f3 f6 (f3 f10 (f3 f11 f12)))) ?v0) f1) (=> (= (f16 ?v0) f1) (=> (not (= (f17 (f18 (f19 ?v1) f15) ?v0) f1)) (= (f17 (f18 (f19 (f3 ?v_0 (f3 ?v_0 ?v1))) ?v1) ?v0) f1)))))))
(assert (forall ((?v0 S3) (?v1 S3)) (=> (= (f17 (f20 (f3 f6 (f3 f10 (f3 f11 f12)))) ?v0) f1) (=> (= (f16 ?v0) f1) (=> (not (= (f17 (f18 (f19 ?v1) f15) ?v0) f1)) (not (= (f17 (f18 (f19 (f3 (f4 f31 ?v0) ?v1)) f15) ?v0) f1)))))))
(assert (forall ((?v0 S3) (?v1 S3) (?v2 S3) (?v3 S3)) (let ((?v_1 (f3 (f4 f31 ?v0) ?v1))) (let ((?v_0 (f4 f9 ?v_1))) (=> (= (f17 (f20 (f3 f6 (f3 f10 (f3 f11 f12)))) ?v0) f1) (=> (= (f16 ?v0) f1) (=> (not (= (f17 (f18 (f19 ?v1) f15) ?v0) f1)) (=> (= (f17 (f18 (f19 (f3 (f4 f9 (f3 ?v_0 ?v1)) ?v2)) (f3 ?v_0 ?v3)) ?v0) f1) (= (f17 (f18 (f19 ?v2) (f3 (f4 f9 ?v3) ?v_1)) ?v0) f1)))))))))
(assert (forall ((?v0 S3) (?v1 S3) (?v2 S3) (?v3 S3)) (let ((?v_0 (f19 (f3 (f4 f9 ?v2) ?v1)))) (=> (= (f17 (f20 (f3 f6 (f3 f10 (f3 f11 f12)))) ?v0) f1) (=> (= (f16 ?v0) f1) (=> (not (= (f17 (f18 (f19 ?v1) f15) ?v0) f1)) (=> (= (f17 (f18 ?v_0 (f3 (f4 f9 (f3 (f4 f9 ?v3) (f3 (f4 f31 ?v0) ?v1))) ?v1)) ?v0) f1) (= (f17 (f18 ?v_0 ?v3) ?v0) f1))))))))
(assert (forall ((?v0 S3) (?v1 S3) (?v2 S3) (?v3 S3)) (let ((?v_1 (f19 ?v1)) (?v_0 (f19 ?v2)) (?v_2 (f4 f9 ?v3)) (?v_3 (f4 f31 ?v0))) (=> (= (f17 (f20 (f3 f6 (f3 f10 (f3 f11 f12)))) ?v0) f1) (=> (= (f16 ?v0) f1) (=> (not (= (f17 (f18 ?v_1 f15) ?v0) f1)) (=> (not (= (f17 (f18 ?v_0 f15) ?v0) f1)) (=> (= (f17 (f18 ?v_0 (f3 ?v_2 (f3 ?v_3 ?v1))) ?v0) f1) (= (f17 (f18 ?v_1 (f3 ?v_2 (f3 ?v_3 ?v2))) ?v0) f1)))))))))
(assert (forall ((?v0 S3) (?v1 S3) (?v2 S3) (?v3 S3)) (let ((?v_2 (f19 ?v3)) (?v_0 (f4 f9 ?v1)) (?v_1 (f4 f31 ?v0))) (=> (= (f17 (f20 (f3 f6 (f3 f10 (f3 f11 f12)))) ?v0) f1) (=> (= (f16 ?v0) f1) (=> (not (= (f17 (f18 (f19 ?v1) f15) ?v0) f1)) (=> (not (= (f17 (f18 (f19 ?v2) f15) ?v0) f1)) (=> (not (= (f17 (f18 ?v_2 f15) ?v0) f1)) (=> (= (f17 (f18 (f19 (f3 ?v_0 (f3 ?v_1 ?v3))) (f3 ?v_0 (f3 ?v_1 ?v2))) ?v0) f1) (= (f17 (f18 ?v_2 ?v2) ?v0) f1))))))))))
(assert (forall ((?v0 S3) (?v1 S3)) (let ((?v_0 (f4 f31 ?v0))) (let ((?v_1 (f3 ?v_0 ?v1))) (=> (= (f17 (f20 (f3 f6 (f3 f10 (f3 f11 f12)))) ?v0) f1) (=> (= (f16 ?v0) f1) (=> (not (= (f17 (f18 (f19 ?v1) f15) ?v0) f1)) (= (f17 (f18 (f19 (f3 (f4 f9 (f3 (f4 f9 ?v1) ?v_1)) (f3 ?v_0 ?v_1))) ?v1) ?v0) f1))))))))
(assert (forall ((?v0 S3) (?v1 S3)) (let ((?v_0 (f4 f31 ?v0))) (let ((?v_1 (f3 ?v_0 ?v1))) (let ((?v_2 (f3 ?v_0 ?v_1))) (=> (= (f17 (f20 (f3 f6 (f3 f10 (f3 f11 f12)))) ?v0) f1) (=> (= (f16 ?v0) f1) (=> (not (= (f17 (f18 (f19 ?v1) f15) ?v0) f1)) (= (f17 (f18 (f19 ?v_2) (f3 (f4 f9 (f3 (f4 f9 ?v1) ?v_1)) ?v_2)) ?v0) f1)))))))))
(assert (= (f29 (f30 f28) (f25 f26 (f3 f10 (f3 f11 f12)))) f1))
(assert (forall ((?v0 S8)) (=> (= (f29 (f30 ?v0) f28) f1) false)))
(assert (forall ((?v0 S8) (?v1 S8) (?v2 S12)) (let ((?v_0 (= (f29 (f32 ?v2 ?v1) ?v0) f1))) (=> (=> (= (f29 (f30 ?v0) ?v1) f1) ?v_0) (=> (=> (= ?v0 ?v1) ?v_0) (=> (=> (= (f29 (f30 ?v1) ?v0) f1) ?v_0) ?v_0))))))
(assert (forall ((?v0 S8) (?v1 S8)) (=> (= (f29 (f30 ?v0) ?v1) f1) (not (= ?v0 ?v1)))))
(assert (forall ((?v0 S8) (?v1 S8)) (=> (= (f29 (f30 ?v0) ?v1) f1) (not (= ?v1 ?v0)))))
(assert (forall ((?v0 S8)) (=> (= (f29 (f30 ?v0) ?v0) f1) false)))
(assert (forall ((?v0 S8) (?v1 S8)) (=> (not (= ?v0 ?v1)) (=> (=> (= (f29 (f30 ?v0) ?v1) f1) false) (=> (=> (= (f29 (f30 ?v1) ?v0) f1) false) false)))))
(assert (forall ((?v0 S8) (?v1 S8)) (= (not (= ?v0 ?v1)) (or (= (f29 (f30 ?v0) ?v1) f1) (= (f29 (f30 ?v1) ?v0) f1)))))
(assert (forall ((?v0 S8)) (not (= (f29 (f30 ?v0) ?v0) f1))))
(assert (forall ((?v0 S8) (?v1 S8)) (= (f21 (f22 f23 ?v0) ?v1) (f21 (f22 f23 ?v1) ?v0))))
(assert (forall ((?v0 S8) (?v1 S8) (?v2 S8)) (let ((?v_1 (f22 f23 ?v0)) (?v_0 (f22 f23 ?v1))) (= (f21 ?v_1 (f21 ?v_0 ?v2)) (f21 ?v_0 (f21 ?v_1 ?v2))))))
(assert (forall ((?v0 S8) (?v1 S8) (?v2 S8)) (let ((?v_0 (f22 f23 ?v0))) (= (f21 (f22 f23 (f21 ?v_0 ?v1)) ?v2) (f21 ?v_0 (f21 (f22 f23 ?v1) ?v2))))))
(assert (forall ((?v0 S8) (?v1 S8) (?v2 S8)) (let ((?v_0 (f22 f23 ?v0))) (= (= (f21 ?v_0 ?v1) (f21 ?v_0 ?v2)) (= ?v1 ?v2)))))
(assert (forall ((?v0 S8) (?v1 S8) (?v2 S8)) (= (= (f21 (f22 f23 ?v0) ?v1) (f21 (f22 f23 ?v2) ?v1)) (= ?v0 ?v2))))
(assert (forall ((?v0 S8) (?v1 S8)) (= (f21 (f22 f27 ?v0) ?v1) (f21 (f22 f27 ?v1) ?v0))))
(assert (forall ((?v0 S8) (?v1 S8) (?v2 S8)) (let ((?v_0 (f22 f27 ?v0))) (= (f21 (f22 f27 (f21 ?v_0 ?v1)) ?v2) (f21 ?v_0 (f21 (f22 f27 ?v1) ?v2))))))
(assert (forall ((?v0 S8)) (=> (=> (= ?v0 f28) false) (= (f29 (f30 f28) ?v0) f1))))
(assert (forall ((?v0 S8) (?v1 S8)) (=> (= (f29 (f30 ?v0) ?v1) f1) (not (= ?v1 f28)))))
(assert (forall ((?v0 S8)) (= (= (f29 (f30 ?v0) f28) f1) false)))
(assert (forall ((?v0 S8)) (= (not (= ?v0 f28)) (= (f29 (f30 f28) ?v0) f1))))
(assert (forall ((?v0 S8)) (not (= (f29 (f30 ?v0) f28) f1))))
(assert (forall ((?v0 S8) (?v1 S8)) (=> (= (f21 (f22 f23 ?v0) ?v1) ?v0) (= ?v1 f28))))
(assert (forall ((?v0 S8) (?v1 S8)) (= (= (f21 (f22 f23 ?v0) ?v1) f28) (and (= ?v0 f28) (= ?v1 f28)))))
(assert (forall ((?v0 S8)) (= (f21 (f22 f23 ?v0) f28) ?v0)))
(assert (forall ((?v0 S8)) (= (f21 (f22 f23 f28) ?v0) ?v0)))
(assert (forall ((?v0 S8) (?v1 S8) (?v2 S8)) (= (= (f21 (f22 f27 ?v0) ?v1) (f21 (f22 f27 ?v2) ?v1)) (or (= ?v0 ?v2) (= ?v1 f28)))))
(assert (forall ((?v0 S8) (?v1 S8) (?v2 S8)) (let ((?v_0 (f22 f27 ?v0))) (= (= (f21 ?v_0 ?v1) (f21 ?v_0 ?v2)) (or (= ?v1 ?v2) (= ?v0 f28))))))
(assert (forall ((?v0 S8) (?v1 S8)) (= (= (f21 (f22 f27 ?v0) ?v1) f28) (or (= ?v0 f28) (= ?v1 f28)))))
(assert (forall ((?v0 S8)) (= (f21 (f22 f27 ?v0) f28) f28)))
(assert (forall ((?v0 S8)) (= (f21 (f22 f27 f28) ?v0) f28)))
(assert (forall ((?v0 S8) (?v1 S8) (?v2 S8)) (=> (= (f29 (f30 (f21 (f22 f23 ?v0) ?v1)) ?v2) f1) (= (f29 (f30 ?v0) ?v2) f1))))
(assert (forall ((?v0 S8) (?v1 S8) (?v2 S8) (?v3 S8)) (=> (= (f29 (f30 ?v0) ?v1) f1) (=> (= (f21 (f22 f23 ?v2) ?v1) (f21 (f22 f23 ?v0) ?v3)) (= (f29 (f30 ?v2) ?v3) f1)))))
(assert (forall ((?v0 S8) (?v1 S8) (?v2 S8) (?v3 S8)) (=> (= (f29 (f30 ?v0) ?v1) f1) (=> (= (f29 (f30 ?v2) ?v3) f1) (= (f29 (f30 (f21 (f22 f23 ?v0) ?v2)) (f21 (f22 f23 ?v1) ?v3)) f1)))))
(assert (forall ((?v0 S8) (?v1 S8) (?v2 S8)) (=> (= (f29 (f30 ?v0) ?v1) f1) (= (f29 (f30 (f21 (f22 f23 ?v0) ?v2)) (f21 (f22 f23 ?v1) ?v2)) f1))))
(assert (forall ((?v0 S8) (?v1 S8) (?v2 S8)) (let ((?v_0 (f30 ?v0))) (=> (= (f29 ?v_0 ?v1) f1) (= (f29 ?v_0 (f21 (f22 f23 ?v2) ?v1)) f1)))))
(assert (forall ((?v0 S8) (?v1 S8) (?v2 S8)) (let ((?v_0 (f30 ?v0))) (=> (= (f29 ?v_0 ?v1) f1) (= (f29 ?v_0 (f21 (f22 f23 ?v1) ?v2)) f1)))))
(assert (forall ((?v0 S8) (?v1 S8) (?v2 S8)) (let ((?v_0 (f22 f23 ?v0))) (= (= (f29 (f30 (f21 ?v_0 ?v1)) (f21 ?v_0 ?v2)) f1) (= (f29 (f30 ?v1) ?v2) f1)))))
(assert (forall ((?v0 S8) (?v1 S8)) (not (= (f29 (f30 (f21 (f22 f23 ?v0) ?v1)) ?v1) f1))))
(assert (forall ((?v0 S8) (?v1 S8)) (not (= (f29 (f30 (f21 (f22 f23 ?v0) ?v1)) ?v0) f1))))
(assert (forall ((?v0 S8) (?v1 S8) (?v2 S8)) (let ((?v_0 (f22 f27 ?v0))) (= (f21 ?v_0 (f21 (f22 f23 ?v1) ?v2)) (f21 (f22 f23 (f21 ?v_0 ?v1)) (f21 ?v_0 ?v2))))))
(assert (forall ((?v0 S8) (?v1 S8) (?v2 S8)) (= (f21 (f22 f27 (f21 (f22 f23 ?v0) ?v1)) ?v2) (f21 (f22 f23 (f21 (f22 f27 ?v0) ?v2)) (f21 (f22 f27 ?v1) ?v2)))))
(check-sat)
(exit)
